
Gurobi 11.0.3 (linux64) logging started Fri Nov 22 19:52:26 2024

Set parameter LogFile to value "/home/yihong/Coding/OR_SUC/SUC_results_bigM100000_thread4/case24_ieee_rts_theta0.5_epsilon0.025_gurobi_seed910000_num_gen100_N_WDR100_load_scaling_factor1_exact_T28quadra_cost.txt"
Set parameter TimeLimit to value 3600
Gurobi Optimizer version 11.0.3 build v11.0.3rc0 (linux64 - "Ubuntu 20.04.6 LTS")

CPU model: AMD EPYC 7532 32-Core Processor, instruction set [SSE2|AVX|AVX2]
Thread count: 64 physical cores, 128 logical processors, using up to 4 threads

Optimize a model with 60783 rows, 34921 columns and 831994 nonzeros
Model fingerprint: 0x9ba4c442
Model has 2800 quadratic constraints
Variable types: 32021 continuous, 2900 integer (2900 binary)
Coefficient statistics:
  Matrix range     [3e-04, 1e+05]
  QMatrix range    [2e-03, 8e-03]
  QLMatrix range   [4e-01, 6e+01]
  Objective range  [1e+00, 1e+00]
  Bounds range     [1e+00, 1e+00]
  RHS range        [1e+00, 1e+05]
Presolve removed 49153 rows and 15055 columns
Presolve time: 0.33s
Presolved: 11630 rows, 19866 columns, 74431 nonzeros
Presolved model has 2800 quadratic constraint(s)
Variable types: 17000 continuous, 2866 integer (2866 binary)

Root relaxation: objective 8.243816e+04, 9311 iterations, 0.26 seconds (0.36 work units)

    Nodes    |    Current Node    |     Objective Bounds      |     Work
 Expl Unexpl |  Obj  Depth IntInf | Incumbent    BestBd   Gap | It/Node Time

     0     0 82438.1629    0   31          - 82438.1629      -     -    0s
     0     0 393785.253    0  770          - 393785.253      -     -    1s
     0     0 495301.782    0  790          - 495301.782      -     -    1s
     0     0 773957.635    0  772          - 773957.635      -     -    1s
     0     0 774156.939    0  446          - 774156.939      -     -    1s
     0     0 775006.976    0  278          - 775006.976      -     -    2s
     0     0 775008.988    0  279          - 775008.988      -     -    2s
     0     0 775193.299    0  279          - 775193.299      -     -    2s
     0     0 775200.937    0  279          - 775200.937      -     -    2s
     0     2 775236.835    0  279          - 775236.835      -     -    3s
   114   120 775659.424   29  293          - 775369.041      -  53.2    5s
H  639   277                    775781.07724 775369.041  0.05%  40.6    8s
*  639   277             217    775781.07724 775369.041  0.05%  40.6    8s

Cutting planes:
  Gomory: 3
  Implied bound: 371
  MIR: 93
  Flow cover: 164
  RLT: 11

Explored 674 nodes (54372 simplex iterations) in 9.69 seconds (13.59 work units)
Thread count was 4 (of 128 available processors)

Solution count 2: 775781 775781 

Optimal solution found (tolerance 1.00e-03)
Warning: max constraint violation (2.8851e-07) exceeds tolerance
Best objective 7.757810772393e+05, best bound 7.753690414271e+05, gap 0.0531%
